SECTION GRAPH
NODES 8
EDGES 12
E 1 2 1
E 1 3 2
E 2 3 4
E 3 7 10
E 4 7 2
E 3 4 2
E 3 8 6
E 8 4 2
E 1 5 6
E 5 4 1
E 4 6 1
E 5 6 3
END

SECTION Terminals
Terminals 2
T 7
T 3
END

SECTION Tree Decomposition
s td 6 2 8
b 3 3 4 8
b 4 1 2 3
b 1 4 3
b 2 3 4 7
b 5 5 4 8
b 6 5 4 6
1 3
5 3
4 1
2 1
5 6
END
EOF 

// Outerplanar
// Answer: 4 